
(set-logic ALL) 

(declare-datatype MyList ((Nil) (Cons (head Real) (tail MyList)) )) 
(declare-fun l0 () MyList) 
(declare-fun l1 () MyList) 
(declare-fun l2 () MyList) 
(declare-fun l3 () MyList) 
(declare-fun i0 () Real) 
(declare-fun i1 () Real) 
(assert (is-Cons l0) )
(assert (= l2 l3) )
(assert (= l2 l2) )
(assert (not (is-Cons Nil)) )
(assert (is-Cons Nil) )
(assert (= l2 Nil) )
(assert (or (= l1 Nil) (= l3 l2)) )
(assert (and (is-Cons l0) (= l3 l0) (is-Cons Nil)) )
(check-sat)
